
  12    4
  10   10   10   10

   0   0   0   0   0   1 2 
   5  10  10  10  10   1 3 
   4  10  10  10  10   3 7 5 4 
   8  10  10  10  10   3 9 8 6 
   5  10  10  10  10   1 6 
   4  10  10  10  10   2 11 10 
  10  10  10  10  10   2 11 10 
   9  10  10  10  10   1 10 
   5  10  10  10  10   1 10 
  10  10  10  10  10   1 12
   4  10  10  10  10   1 12
   0   0   0   0   0   0 
